(declare-const v0 Bool)
(declare-const v1 Bool)
(declare-const v2 Bool)
(declare-const v3 Bool)
(declare-const v4 Bool)
(assert (edge (not v0) (or v1 (not v0))))
(assert (edge (or (not v1) (not v2)) (or (not v3) (not v0))))
(assert (edge v1 true))
(assert (edge true (not v2)))
(assert (edge (or v4 (not v1) (not v3)) true))
(assert (not (edge (not v4) (or v1 v4))))